c File: instances/36_0.25_3.col
c
c Description: Random graph of size 36 vertices and P(0.25) of edges between any two vertices.
p col 36 630
e 1 7
e 1 16
e 1 17
e 1 23
e 1 26
e 1 30
e 1 35
e 2 3
e 2 9
e 2 11
e 2 12
e 2 17
e 2 18
e 2 21
e 2 24
e 2 26
e 2 27
e 2 28
e 2 32
e 3 10
e 3 16
e 3 18
e 3 21
e 3 24
e 3 31
e 3 32
e 3 34
e 3 36
e 4 5
e 4 6
e 4 11
e 4 14
e 4 15
e 4 18
e 4 26
e 4 32
e 5 8
e 5 10
e 5 11
e 5 13
e 5 15
e 5 17
e 5 18
e 5 22
e 5 24
e 6 10
e 6 11
e 6 12
e 6 17
e 6 24
e 6 30
e 7 10
e 7 14
e 7 16
e 7 17
e 7 18
e 7 20
e 7 21
e 7 22
e 7 23
e 7 31
e 7 34
e 8 10
e 8 11
e 8 12
e 8 18
e 8 19
e 8 24
e 8 28
e 8 30
e 8 31
e 8 35
e 9 23
e 9 34
e 10 12
e 10 13
e 10 16
e 10 17
e 10 18
e 10 22
e 10 23
e 10 25
e 10 29
e 10 30
e 10 31
e 11 14
e 11 16
e 11 22
e 11 26
e 11 29
e 11 30
e 12 17
e 12 20
e 12 27
e 12 30
e 12 33
e 12 35
e 12 36
e 13 16
e 13 22
e 13 25
e 13 26
e 13 27
e 13 35
e 14 23
e 14 26
e 14 34
e 14 36
e 15 20
e 15 31
e 15 35
e 16 17
e 16 19
e 16 20
e 16 25
e 16 33
e 16 36
e 17 22
e 17 28
e 17 36
e 18 22
e 18 27
e 18 31
e 19 22
e 19 30
e 19 32
e 19 33
e 20 23
e 20 25
e 20 26
e 20 34
e 20 36
e 21 25
e 21 28
e 21 32
e 21 34
e 22 23
e 22 25
e 22 26
e 22 28
e 22 31
e 22 35
e 22 36
e 23 24
e 23 29
e 23 31
e 23 32
e 23 33
e 23 35
e 24 25
e 25 29
e 25 31
e 25 33
e 25 35
e 26 29
e 27 29
e 27 34
e 27 35
e 28 30
e 28 31
e 28 34
e 29 30
e 29 34
e 29 35
e 30 31
e 30 33
e 30 35
e 31 32
e 31 34
e 31 35
e 31 36
e 32 35
e 33 36